(set-info :source |printed by MathSAT|)
(declare-fun |!{$(in_main#0)<N>}| () Int)
(declare-fun |!{$(in_main#0)<N>}.next| () Int)
(declare-fun |!{$(in_main#0)<i>}| () Int)
(declare-fun |!{$(in_main#0)<i>}.next| () Int)
(declare-fun |!{$(in_main#0)<min>}| () Int)
(declare-fun |!{$(in_main#0)<min>}.next| () Int)
(declare-fun |!{$(in_main#0)<x>}| () Int)
(declare-fun |!{$(in_main#0)<x>}.next| () Int)
(declare-fun |!{$(in_main#0)<a.1>}| () (Array Int Int))
(declare-fun |!{$(in_main#0)<a.1>}.next| () (Array Int Int))
(declare-fun |!{$(in_main#0)<$(in___VERIFIER_nondet_int#0)<h#<__VERIFIER_nondet_int.return>>>}| () Int)
(declare-fun |!{$(in_main#0)<$(in___VERIFIER_nondet_int#1)<h#<__VERIFIER_nondet_int.return>>>}| () Int)
(declare-fun !pc () Int)
(declare-fun !pc.next () Int)
(declare-fun |%{$(in_main#0)<x>}#1| () Int)
(declare-fun |%{$(in_main#0)<a.1>}#1| () (Array Int Int))
(declare-fun |%{$(in_main#0)<min>}#2| () Int)
(define-fun .def_31 () Int (! !pc :next !pc.next))
(define-fun .def_34 () Bool (! (= .def_31 2) :init true))
(define-fun .def_162 () Bool (= .def_31 28))
(define-fun .def_144 () Bool (= !pc.next 48))
(define-fun .def_165 () Bool (and .def_144 .def_162))
(define-fun .def_8 () Int (! |!{$(in_main#0)<N>}| :next |!{$(in_main#0)<N>}.next|))
(define-fun .def_69 () Bool (= .def_8 |!{$(in_main#0)<N>}.next|))
(define-fun .def_47 () Bool (= |!{$(in_main#0)<i>}.next| 0))
(define-fun .def_157 () Bool (and .def_47 .def_69))
(define-fun .def_12 () Int (! |!{$(in_main#0)<min>}| :next |!{$(in_main#0)<min>}.next|))
(define-fun .def_73 () Bool (= .def_12 |!{$(in_main#0)<min>}.next|))
(define-fun .def_158 () Bool (and .def_73 .def_157))
(define-fun .def_14 () Int (! |!{$(in_main#0)<x>}| :next |!{$(in_main#0)<x>}.next|))
(define-fun .def_75 () Bool (= .def_14 |!{$(in_main#0)<x>}.next|))
(define-fun .def_159 () Bool (and .def_75 .def_158))
(define-fun .def_16 () (Array Int Int) (! |!{$(in_main#0)<a.1>}| :next |!{$(in_main#0)<a.1>}.next|))
(define-fun .def_77 () Bool (= .def_16 |!{$(in_main#0)<a.1>}.next|))
(define-fun .def_160 () Bool (and .def_77 .def_159))
(define-fun .def_10 () Int (! |!{$(in_main#0)<i>}| :next |!{$(in_main#0)<i>}.next|))
(define-fun .def_112 () Bool (<= .def_8 .def_10))
(define-fun .def_161 () Bool (and .def_112 .def_160))
(define-fun .def_166 () Bool (and .def_161 .def_165))
(define-fun .def_56 () Bool (= !pc.next 28))
(define-fun .def_163 () Bool (and .def_56 .def_162))
(define-fun .def_151 () (Array Int Int) (store .def_16 .def_10 |!{$(in_main#0)<$(in___VERIFIER_nondet_int#1)<h#<__VERIFIER_nondet_int.return>>>}|))
(define-fun .def_154 () Bool (= |!{$(in_main#0)<a.1>}.next| .def_151))
(define-fun .def_128 () Int (* (- 1) |!{$(in_main#0)<i>}.next|))
(define-fun .def_129 () Int (+ .def_10 .def_128))
(define-fun .def_130 () Bool (= .def_129 (- 1)))
(define-fun .def_131 () Bool (and .def_69 .def_130))
(define-fun .def_152 () Bool (and .def_73 .def_131))
(define-fun .def_153 () Bool (and .def_75 .def_152))
(define-fun .def_155 () Bool (and .def_153 .def_154))
(define-fun .def_113 () Bool (not .def_112))
(define-fun .def_156 () Bool (and .def_113 .def_155))
(define-fun .def_164 () Bool (and .def_156 .def_163))
(define-fun .def_167 () Bool (or .def_164 .def_166))
(define-fun .def_143 () Bool (= .def_31 48))
(define-fun .def_101 () Bool (= !pc.next 70))
(define-fun .def_147 () Bool (and .def_101 .def_143))
(define-fun .def_138 () Bool (= |!{$(in_main#0)<x>}.next| 0))
(define-fun .def_71 () Bool (= .def_10 |!{$(in_main#0)<i>}.next|))
(define-fun .def_80 () Bool (and .def_69 .def_71))
(define-fun .def_81 () Bool (and .def_73 .def_80))
(define-fun .def_139 () Bool (and .def_81 .def_138))
(define-fun .def_140 () Bool (and .def_77 .def_139))
(define-fun .def_141 () Bool (and .def_112 .def_140))
(define-fun .def_148 () Bool (and .def_141 .def_147))
(define-fun .def_145 () Bool (and .def_143 .def_144))
(define-fun .def_132 () Bool (= |!{$(in_main#0)<min>}.next| |%{$(in_main#0)<min>}#2|))
(define-fun .def_133 () Bool (and .def_131 .def_132))
(define-fun .def_134 () Bool (and .def_75 .def_133))
(define-fun .def_135 () Bool (and .def_77 .def_134))
(define-fun .def_114 () Int (select .def_16 .def_10))
(define-fun .def_122 () Bool (= .def_114 |%{$(in_main#0)<min>}#2|))
(define-fun .def_115 () Bool (<= .def_12 .def_114))
(define-fun .def_116 () Bool (not .def_115))
(define-fun .def_124 () Bool (and .def_116 .def_122))
(define-fun .def_121 () Bool (= .def_12 |%{$(in_main#0)<min>}#2|))
(define-fun .def_123 () Bool (and .def_115 .def_121))
(define-fun .def_125 () Bool (or .def_123 .def_124))
(define-fun .def_136 () Bool (and .def_125 .def_135))
(define-fun .def_137 () Bool (and .def_113 .def_136))
(define-fun .def_146 () Bool (and .def_137 .def_145))
(define-fun .def_149 () Bool (or .def_146 .def_148))
(define-fun .def_105 () Bool (= !pc.next 0))
(define-fun .def_96 () Bool (= .def_31 70))
(define-fun .def_106 () Bool (and .def_96 .def_105))
(define-fun .def_59 () Bool (<= .def_8 .def_14))
(define-fun .def_90 () Bool (and .def_59 .def_69))
(define-fun .def_91 () Bool (and .def_71 .def_90))
(define-fun .def_92 () Bool (and .def_73 .def_91))
(define-fun .def_93 () Bool (and .def_75 .def_92))
(define-fun .def_94 () Bool (and .def_77 .def_93))
(define-fun .def_107 () Bool (and .def_94 .def_106))
(define-fun .def_102 () Bool (and .def_96 .def_101))
(define-fun .def_83 () Int (* (- 1) |!{$(in_main#0)<x>}.next|))
(define-fun .def_84 () Int (+ .def_14 .def_83))
(define-fun .def_85 () Bool (= .def_84 (- 1)))
(define-fun .def_86 () Bool (and .def_81 .def_85))
(define-fun .def_87 () Bool (and .def_77 .def_86))
(define-fun .def_61 () Int (select .def_16 .def_14))
(define-fun .def_62 () Bool (<= .def_12 .def_61))
(define-fun .def_63 () Int (ite .def_62 1 0))
(define-fun .def_64 () Bool (= .def_63 0))
(define-fun .def_65 () Bool (not .def_64))
(define-fun .def_88 () Bool (and .def_65 .def_87))
(define-fun .def_60 () Bool (not .def_59))
(define-fun .def_89 () Bool (and .def_60 .def_88))
(define-fun .def_103 () Bool (and .def_89 .def_102))
(define-fun .def_98 () Bool (= !pc.next 90))
(define-fun .def_99 () Bool (and .def_96 .def_98))
(define-fun .def_70 () Bool (and .def_64 .def_69))
(define-fun .def_72 () Bool (and .def_70 .def_71))
(define-fun .def_74 () Bool (and .def_72 .def_73))
(define-fun .def_76 () Bool (and .def_74 .def_75))
(define-fun .def_78 () Bool (and .def_76 .def_77))
(define-fun .def_79 () Bool (and .def_60 .def_78))
(define-fun .def_100 () Bool (and .def_79 .def_99))
(define-fun .def_104 () Bool (or .def_100 .def_103))
(define-fun .def_108 () Bool (or .def_104 .def_107))
(define-fun .def_57 () Bool (and .def_34 .def_56))
(define-fun .def_53 () Bool (= |!{$(in_main#0)<a.1>}.next| |%{$(in_main#0)<a.1>}#1|))
(define-fun .def_51 () Bool (= |!{$(in_main#0)<x>}.next| |%{$(in_main#0)<x>}#1|))
(define-fun .def_49 () Bool (= |!{$(in_main#0)<min>}.next| 0))
(define-fun .def_46 () Bool (= |!{$(in_main#0)<N>}.next| |!{$(in_main#0)<$(in___VERIFIER_nondet_int#0)<h#<__VERIFIER_nondet_int.return>>>}|))
(define-fun .def_48 () Bool (and .def_46 .def_47))
(define-fun .def_50 () Bool (and .def_48 .def_49))
(define-fun .def_52 () Bool (and .def_50 .def_51))
(define-fun .def_54 () Bool (and .def_52 .def_53))
(define-fun .def_58 () Bool (and .def_54 .def_57))
(define-fun .def_109 () Bool (or .def_58 .def_108))
(define-fun .def_150 () Bool (or .def_109 .def_149))
(define-fun .def_168 () Bool (! (or .def_150 .def_167) :trans true))
(define-fun .def_110 () Bool (= .def_31 90))
(define-fun .def_169 () Bool (! (not .def_110) :invar-property 0 :invar-property-name ||))
(assert true)
